# Solution for model Bin Packing Problem
# Objective value = 350
z_0 1
z_1 0
z_2 1
z_3 0
I_0_1 0
I_0_2 1
I_0_3 1
I_0_4 1
I_0_5 1
I_0_6 1
I_0_7 1
I_0_8 1
I_0_9 1
I_1_0 0
I_1_2 1
I_1_3 0
I_1_4 1
I_1_5 0
I_1_6 1
I_1_7 1
I_1_8 0
I_1_9 1
I_2_0 0
I_2_1 0
I_2_3 1
I_2_4 1
I_2_5 1
I_2_6 0
I_2_7 1
I_2_8 1
I_2_9 1
I_3_0 0
I_3_1 0
I_3_2 0
I_3_4 1
I_3_5 0
I_3_6 0
I_3_7 0
I_3_8 0
I_3_9 1
I_4_0 0
I_4_1 0
I_4_2 0
I_4_3 0
I_4_5 0
I_4_6 0
I_4_7 0
I_4_8 1
I_4_9 1
I_5_0 0
I_5_1 0
I_5_2 0
I_5_3 1
I_5_4 0
I_5_6 0
I_5_7 1
I_5_8 1
I_5_9 0
I_6_0 0
I_6_1 0
I_6_2 1
I_6_3 1
I_6_4 1
I_6_5 0
I_6_7 1
I_6_8 1
I_6_9 1
I_7_0 0
I_7_1 0
I_7_2 0
I_7_3 1
I_7_4 1
I_7_5 0
I_7_6 0
I_7_8 1
I_7_9 0
I_8_0 0
I_8_1 0
I_8_2 0
I_8_3 1
I_8_4 0
I_8_5 0
I_8_6 0
I_8_7 0
I_8_9 1
I_9_0 0
I_9_1 0
I_9_2 0
I_9_3 0
I_9_4 0
I_9_5 0
I_9_6 0
I_9_7 1
I_9_8 0
b_0_1 0
b_0_2 0
b_0_3 0
b_0_4 0
b_0_5 0
b_0_6 0
b_0_7 0
b_0_8 0
b_0_9 0
b_1_0 1
b_1_2 0
b_1_3 0
b_1_4 0
b_1_5 0
b_1_6 0
b_1_7 0
b_1_8 0
b_1_9 0
b_2_0 0
b_2_1 0
b_2_3 0
b_2_4 0
b_2_5 0
b_2_6 0
b_2_7 0
b_2_8 0
b_2_9 0
b_3_0 0
b_3_1 1
b_3_2 0
b_3_4 0
b_3_5 0
b_3_6 0
b_3_7 0
b_3_8 0
b_3_9 0
b_4_0 0
b_4_1 0
b_4_2 0
b_4_3 0
b_4_5 0
b_4_6 0
b_4_7 0
b_4_8 0
b_4_9 0
b_5_0 0
b_5_1 0
b_5_2 0
b_5_3 0
b_5_4 0
b_5_6 0
b_5_7 0
b_5_8 0
b_5_9 0
b_6_0 0
b_6_1 0
b_6_2 0
b_6_3 0
b_6_4 0
b_6_5 0
b_6_7 0
b_6_8 0
b_6_9 0
b_7_0 0
b_7_1 0
b_7_2 0
b_7_3 0
b_7_4 0
b_7_5 0
b_7_6 0
b_7_8 0
b_7_9 0
b_8_0 0
b_8_1 1
b_8_2 0
b_8_3 0
b_8_4 0
b_8_5 0
b_8_6 0
b_8_7 0
b_8_9 0
b_9_0 0
b_9_1 0
b_9_2 0
b_9_3 0
b_9_4 0
b_9_5 0
b_9_6 0
b_9_7 0
b_9_8 0
p_0_0 1
p_0_1 0
p_0_2 0
p_0_3 0
p_1_0 0
p_1_1 0
p_1_2 1
p_1_3 0
p_2_0 1
p_2_1 0
p_2_2 0
p_2_3 0
p_3_0 1
p_3_1 0
p_3_2 0
p_3_3 0
p_4_0 0
p_4_1 0
p_4_2 1
p_4_3 0
p_5_0 1
p_5_1 0
p_5_2 0
p_5_3 0
p_6_0 0
p_6_1 0
p_6_2 1
p_6_3 0
p_7_0 1
p_7_1 0
p_7_2 0
p_7_3 0
p_8_0 1
p_8_1 0
p_8_2 0
p_8_3 0
p_9_0 0
p_9_1 0
p_9_2 1
p_9_3 0
rho_0 1
g_0 1
gamma_0 0
rho_1 1
g_1 1
gamma_1 0
rho_2 1
g_2 1
gamma_2 0
rho_3 1
g_3 1
gamma_3 0
rho_4 1
g_4 1
gamma_4 0
rho_5 1
g_5 1
gamma_5 0
rho_6 0
g_6 1
gamma_6 0
rho_7 1
g_7 1
gamma_7 0
rho_8 0
g_8 1
gamma_8 0
rho_9 1
g_9 1
gamma_9 0
radioactive_0 1
radioactive_1 1
radioactive_2 0
radioactive_3 1
B1_0_1 0
B2_0_1 0
B1_0_2 0
B2_0_2 0
B1_0_3 0
B2_0_3 0
B1_0_4 0
B2_0_4 0
B1_0_5 0
B2_0_5 0
B1_0_6 0
B2_0_6 0
B1_0_7 0
B2_0_7 0
B1_0_8 0
B2_0_8 0
B1_0_9 0
B2_0_9 0
B1_1_0 0
B2_1_0 0
B1_1_2 0
B2_1_2 0
B1_1_3 0
B2_1_3 0
B1_1_4 0
B2_1_4 0
B1_1_5 0
B2_1_5 0
B1_1_6 0
B2_1_6 0
B1_1_7 0
B2_1_7 0
B1_1_8 0
B2_1_8 0
B1_1_9 0
B2_1_9 0
B1_2_0 0
B2_2_0 0
B1_2_1 0
B2_2_1 0
B1_2_3 0
B2_2_3 0
B1_2_4 0
B2_2_4 0
B1_2_5 0
B2_2_5 0
B1_2_6 0
B2_2_6 0
B1_2_7 0
B2_2_7 0
B1_2_8 0
B2_2_8 0
B1_2_9 0
B2_2_9 0
B1_3_0 0
B2_3_0 0
B1_3_1 0
B2_3_1 0
B1_3_2 0
B2_3_2 0
B1_3_4 0
B2_3_4 0
B1_3_5 0
B2_3_5 0
B1_3_6 0
B2_3_6 0
B1_3_7 0
B2_3_7 0
B1_3_8 0
B2_3_8 0
B1_3_9 0
B2_3_9 0
B1_4_0 0
B2_4_0 0
B1_4_1 0
B2_4_1 0
B1_4_2 0
B2_4_2 0
B1_4_3 0
B2_4_3 0
B1_4_5 0
B2_4_5 0
B1_4_6 0
B2_4_6 0
B1_4_7 0
B2_4_7 0
B1_4_8 0
B2_4_8 0
B1_4_9 0
B2_4_9 0
B1_5_0 0
B2_5_0 0
B1_5_1 0
B2_5_1 0
B1_5_2 0
B2_5_2 0
B1_5_3 0
B2_5_3 0
B1_5_4 0
B2_5_4 0
B1_5_6 0
B2_5_6 0
B1_5_7 0
B2_5_7 0
B1_5_8 0
B2_5_8 0
B1_5_9 0
B2_5_9 0
B1_6_0 0
B2_6_0 0
B1_6_1 0
B2_6_1 0
B1_6_2 0
B2_6_2 0
B1_6_3 0
B2_6_3 0
B1_6_4 0
B2_6_4 0
B1_6_5 0
B2_6_5 0
B1_6_7 0
B2_6_7 0
B1_6_8 0
B2_6_8 0
B1_6_9 0
B2_6_9 0
B1_7_0 0
B2_7_0 0
B1_7_1 0
B2_7_1 0
B1_7_2 0
B2_7_2 0
B1_7_3 0
B2_7_3 0
B1_7_4 0
B2_7_4 0
B1_7_5 0
B2_7_5 0
B1_7_6 0
B2_7_6 0
B1_7_8 0
B2_7_8 0
B1_7_9 0
B2_7_9 0
B1_8_0 0
B2_8_0 0
B1_8_1 0
B2_8_1 0
B1_8_2 0
B2_8_2 0
B1_8_3 0
B2_8_3 0
B1_8_4 0
B2_8_4 0
B1_8_5 0
B2_8_5 0
B1_8_6 0
B2_8_6 0
B1_8_7 0
B2_8_7 0
B1_8_9 0
B2_8_9 0
B1_9_0 0
B2_9_0 0
B1_9_1 0
B2_9_1 0
B1_9_2 0
B2_9_2 0
B1_9_3 0
B2_9_3 0
B1_9_4 0
B2_9_4 0
B1_9_5 0
B2_9_5 0
B1_9_6 0
B2_9_6 0
B1_9_7 0
B2_9_7 0
B1_9_8 0
B2_9_8 0
x_0 0
y_0 0
x_1 42
y_1 0
x_2 66
y_2 0
x_3 257
y_3 0
x_4 129
y_4 0
x_5 91
y_5 0
x_6 66
y_6 0
x_7 130
y_7 0
x_8 189
y_8 0
x_9 153
y_9 0
